NAME : XML100_2164_23
DIMENSION : 101
NB_CLUSTERS : 13
CLUSTERING_ALG : DBSCAN
CLUSTERING_PARAMS : eps(91), minSamples(3)
CLUSTERS
1 0
2 2 10 12 18 21 26 40 48 52 53 57 61 67 70 83 88 91 100
3 3 5 13 31 42 54 58 75 79 89 93 94
4 1 4 8 22 23 27 30 33 35 45 66 72 74 81 82 92
5 9 28 37 68 96 99
6 11 24 25 43 55 56 76
7 7 14 15 38 62 65
8 17 49 50 63 71 77 90
9 19 29 34 39 46 51 60 69 73 78 87
10 20 32 41 44 59 64 80 86 95
11 6 47 85
12 36 84 97
13 16 98
EOF